100
128
52
21
12
11
32
6
29
61
6
35
43
20
18
23
12
3
22
45
29
59
17
34
41
34
59
41
25
32
43
53
27
5
36
28
21
23
23
22
19
18
45
57
64
35
29
25
31
55
31
37
47
54
37
5
4
37
41
44
31
32
28
50
21
43
24
30
1
30
29
4
1
10
47
25
25
31
56
24
48
52
29
56
31
47
41
2
63
63
6
64
64
45
8
32
64
64
39
52
21
54